657620
1,72,63,32,118,49,71,140,135,83,157,74,39,207,67,163,127,147,43,31,178,199,98,42,160,113,73,209,126,70,86,218,206,136,181,195,119,193,84,29,114,191,152,122,51,177,226,69,23,159,208,3,185,189,16,60,138,137,15,8,120,97,194,165,14,110,201,10,198,200,65,154,164,174,76,57,95,79,167,85,188,124,173,131,148,182,61,123,25,80,132,149,115,2,82,158,77,222,41,128,141,24,66,216,100,53,92,18,56,54,175,105,202,99,190,219,106,121,180,103,187,12,146,88,228,109,90,186,171,150,170,142,4,21,217,153,129,33,224,38,203,6,104,230,212,45,204,172,168,93,213,52,221,59,58,139,11,143,197,214,46,125,227,19,134,111,48,13,225,47,17,223,176,220,30,64,44,5,156,211,145,144,26,22,91,96,68,9,166,101,184,116,161,107,89,196,179,192,37,34,205,75,215,78,28,151,50,108,94,35,87,62,102,55,130,81,40,169,27,112,155,133,229,162,36,183,20,117,210,7,1